bin/vaccinebp
vaccinebp.linux.x86_64.gnu.dbg.spx